
n_res = 6;
rcap = [18, 23, 23, 23, 801, 733];
rtype = [1, 1, 1, 1, 2, 2];
n_tasks = 50;
modes =  [{1, 2, 3, 4, 5, 6, 7, 8, 9}, {10, 11, 12, 13, 14, 15, 16, 17, 18}, {19, 20, 21, 22, 23, 24, 25, 26, 27}, {28, 29, 30, 31, 32, 33, 34, 35, 36}, {37, 38, 39, 40, 41, 42, 43, 44, 45}, {46, 47, 48, 49, 50, 51, 52, 53, 54}, {55, 56, 57, 58, 59, 60, 61, 62, 63}, {64, 65, 66, 67, 68, 69, 70, 71, 72}, {73, 74, 75, 76, 77, 78, 79, 80, 81}, {82, 83, 84, 85, 86, 87, 88, 89, 90}, {91, 92, 93, 94, 95, 96, 97, 98, 99}, {100, 101, 102, 103, 104, 105, 106, 107, 108}, {109, 110, 111, 112, 113, 114, 115, 116, 117}, {118, 119, 120, 121, 122, 123, 124, 125, 126}, {127, 128, 129, 130, 131, 132, 133, 134, 135}, {136, 137, 138, 139, 140, 141, 142, 143, 144}, {145, 146, 147, 148, 149, 150, 151, 152, 153}, {154, 155, 156, 157, 158, 159, 160, 161, 162}, {163, 164, 165, 166, 167, 168, 169, 170, 171}, {172, 173, 174, 175, 176, 177, 178, 179, 180}, {181, 182, 183, 184, 185, 186, 187, 188, 189}, {190, 191, 192, 193, 194, 195, 196, 197, 198}, {199, 200, 201, 202, 203, 204, 205, 206, 207}, {208, 209, 210, 211, 212, 213, 214, 215, 216}, {217, 218, 219, 220, 221, 222, 223, 224, 225}, {226, 227, 228, 229, 230, 231, 232, 233, 234}, {235, 236, 237, 238, 239, 240, 241, 242, 243}, {244, 245, 246, 247, 248, 249, 250, 251, 252}, {253, 254, 255, 256, 257, 258, 259, 260, 261}, {262, 263, 264, 265, 266, 267, 268, 269, 270}, {271, 272, 273, 274, 275, 276, 277, 278, 279}, {280, 281, 282, 283, 284, 285, 286, 287, 288}, {289, 290, 291, 292, 293, 294, 295, 296, 297}, {298, 299, 300, 301, 302, 303, 304, 305, 306}, {307, 308, 309, 310, 311, 312, 313, 314, 315}, {316, 317, 318, 319, 320, 321, 322, 323, 324}, {325, 326, 327, 328, 329, 330, 331, 332, 333}, {334, 335, 336, 337, 338, 339, 340, 341, 342}, {343, 344, 345, 346, 347, 348, 349, 350, 351}, {352, 353, 354, 355, 356, 357, 358, 359, 360}, {361, 362, 363, 364, 365, 366, 367, 368, 369}, {370, 371, 372, 373, 374, 375, 376, 377, 378}, {379, 380, 381, 382, 383, 384, 385, 386, 387}, {388, 389, 390, 391, 392, 393, 394, 395, 396}, {397, 398, 399, 400, 401, 402, 403, 404, 405}, {406, 407, 408, 409, 410, 411, 412, 413, 414}, {415, 416, 417, 418, 419, 420, 421, 422, 423}, {424, 425, 426, 427, 428, 429, 430, 431, 432}, {433, 434, 435, 436, 437, 438, 439, 440, 441}, {442, 443, 444, 445, 446, 447, 448, 449, 450}];
succ =  [{14, 13, 2}, {21, 16, 11, 8, 7}, {16, 14, 13, 7}, {21, 16, 13, 7}, {21, 16, 10, 8}, {16, 14, 12}, {15, 10}, {23, 20, 19, 17, 15}, {10}, {28, 23, 20, 19, 17}, {23, 20, 15}, {23, 20, 15}, {30, 28, 26, 24, 23, 19, 18}, {30, 24, 21, 17}, {30, 28, 26, 22, 18}, {28, 26, 19, 18}, {26, 22, 18}, {37, 27, 25}, {31, 25, 22}, {31, 30, 24}, {23, 22}, {37, 35, 33, 29}, {37, 35, 31, 29}, {37, 35, 33, 29}, {35, 33, 29}, {27}, {36, 35, 32, 31}, {35, 32, 31}, {45, 36, 34, 32}, {34, 33, 32}, {50, 45, 44, 39, 34}, {50, 49, 44, 43, 40, 38}, {50, 49, 45, 44, 39}, {48, 43, 41, 40}, {43, 41, 39}, {50, 49, 47, 44, 42}, {43, 39}, {39}, {48, 47, 42}, {47, 42}, {49, 46}, {46}, {46}, {46}, {47}, {}, {}, {}, {}, {}];
n_opt = 450;
dur = [2, 3, 4, 8, 11, 12, 14, 22, 29, 1, 5, 10, 11, 12, 13, 22, 29, 30, 1, 7, 12, 13, 15, 18, 26, 27, 28, 1, 2, 3, 10, 11, 12, 15, 19, 30, 4, 9, 22, 23, 24, 25, 27, 28, 30, 6, 8, 10, 11, 13, 24, 26, 28, 29, 1, 12, 17, 18, 19, 21, 22, 26, 30, 3, 4, 5, 7, 10, 14, 18, 24, 30, 6, 7, 8, 11, 13, 15, 19, 22, 29, 1, 10, 11, 15, 16, 17, 22, 28, 30, 3, 5, 7, 9, 13, 26, 27, 29, 30, 2, 3, 4, 5, 10, 16, 19, 26, 29, 14, 15, 16, 19, 22, 24, 27, 28, 29, 3, 4, 8, 12, 13, 23, 26, 27, 28, 2, 8, 9, 13, 15, 21, 22, 23, 27, 3, 9, 11, 12, 13, 18, 24, 25, 26, 1, 2, 4, 15, 17, 19, 20, 22, 23, 1, 3, 5, 14, 21, 22, 25, 27, 29, 1, 11, 13, 14, 15, 16, 21, 27, 29, 1, 5, 7, 9, 13, 15, 16, 17, 28, 5, 11, 12, 13, 15, 17, 18, 25, 26, 7, 8, 10, 11, 16, 18, 21, 22, 25, 2, 8, 10, 11, 12, 13, 20, 23, 24, 2, 4, 5, 6, 8, 14, 16, 19, 28, 5, 8, 9, 16, 18, 19, 27, 28, 29, 2, 4, 7, 18, 20, 21, 22, 27, 29, 5, 6, 7, 8, 16, 21, 26, 27, 28, 6, 8, 10, 11, 19, 20, 21, 27, 29, 3, 9, 13, 14, 17, 18, 23, 24, 27, 2, 10, 11, 16, 17, 18, 25, 28, 30, 3, 10, 13, 16, 17, 18, 19, 20, 26, 1, 4, 8, 9, 13, 19, 24, 25, 28, 1, 5, 6, 7, 8, 9, 10, 11, 12, 7, 11, 12, 15, 20, 24, 26, 27, 29, 2, 5, 7, 8, 10, 16, 17, 24, 26, 9, 13, 17, 18, 20, 25, 27, 29, 30, 2, 3, 4, 8, 11, 19, 20, 23, 25, 3, 8, 13, 23, 24, 25, 28, 29, 30, 1, 2, 3, 8, 12, 15, 23, 25, 27, 2, 3, 9, 11, 12, 13, 19, 22, 25, 2, 4, 8, 9, 10, 12, 14, 15, 29, 5, 6, 15, 16, 17, 18, 20, 21, 29, 2, 5, 6, 14, 15, 18, 21, 24, 28, 1, 6, 7, 11, 16, 19, 23, 24, 26, 6, 7, 8, 17, 24, 27, 28, 29, 30, 2, 5, 16, 20, 21, 22, 23, 24, 30, 1, 5, 9, 25, 26, 27, 28, 29, 30, 5, 6, 9, 11, 15, 21, 23, 27, 28, 1, 7, 13, 14, 16, 20, 21, 25, 27, 1, 3, 6, 7, 11, 15, 16, 25, 26];
rreq = [|3, 3, 3, 3, 3, 3, 3, 3, 3, 4, 3, 3, 3, 2, 2, 2, 2, 2, 4, 4, 4, 4, 4, 4, 4, 4, 4, 5, 4, 4, 4, 3, 3, 3, 2, 2, 3, 3, 3, 3, 2, 2, 2, 1, 1, 2, 2, 2, 2, 2, 2, 2, 2, 2, 5, 4, 4, 4, 4, 4, 4, 4, 4, 3, 3, 3, 3, 2, 2, 2, 2, 2, 3, 2, 2, 2, 2, 1, 1, 1, 1, 3, 3, 3, 3, 3, 3, 3, 3, 3, 4, 3, 3, 3, 3, 3, 3, 3, 3, 2, 1, 1, 1, 1, 1, 1, 1, 1, 5, 4, 4, 4, 3, 3, 2, 2, 2, 4, 4, 4, 4, 4, 4, 4, 4, 4, 4, 4, 4, 4, 3, 3, 2, 2, 2, 1, 1, 1, 1, 1, 1, 1, 1, 1, 2, 2, 2, 2, 2, 2, 2, 2, 2, 3, 3, 3, 3, 2, 2, 2, 2, 2, 5, 4, 4, 4, 3, 3, 3, 2, 2, 4, 4, 4, 4, 4, 4, 4, 4, 4, 5, 5, 5, 5, 5, 5, 5, 5, 5, 4, 4, 4, 4, 4, 4, 4, 4, 4, 3, 3, 3, 3, 2, 2, 2, 2, 2, 1, 1, 1, 1, 1, 1, 1, 1, 1, 3, 2, 2, 2, 2, 2, 2, 2, 2, 4, 4, 4, 4, 4, 4, 4, 4, 4, 1, 1, 1, 1, 1, 1, 1, 1, 1, 3, 3, 3, 3, 3, 2, 2, 2, 2, 5, 4, 4, 4, 4, 4, 4, 4, 4, 4, 3, 3, 3, 2, 2, 2, 1, 1, 4, 3, 3, 3, 3, 2, 2, 2, 2, 2, 1, 1, 1, 1, 1, 1, 1, 1, 4, 3, 3, 3, 3, 3, 3, 3, 3, 5, 5, 5, 5, 5, 5, 5, 5, 5, 5, 4, 4, 4, 3, 3, 3, 3, 3, 3, 3, 3, 3, 3, 2, 2, 2, 2, 5, 5, 5, 5, 5, 5, 5, 5, 5, 5, 4, 3, 3, 3, 2, 1, 1, 1, 3, 3, 3, 3, 3, 3, 3, 3, 3, 3, 3, 3, 3, 2, 2, 2, 2, 2, 3, 3, 3, 3, 3, 2, 2, 2, 2, 2, 2, 2, 2, 2, 2, 2, 2, 2, 1, 1, 1, 1, 1, 1, 1, 1, 1, 4, 4, 4, 4, 4, 4, 4, 4, 4, 2, 1, 1, 1, 1, 1, 1, 1, 1, 3, 2, 2, 2, 2, 1, 1, 1, 1, 1, 1, 1, 1, 1, 1, 1, 1, 1, 4, 4, 3, 3, 2, 2, 2, 1, 1, 3, 2, 2, 2, 1, 1, 1, 1, 1, 4, 3, 3, 3, 3, 3, 3, 3, 3
 |5, 5, 5, 5, 5, 5, 5, 5, 5, 4, 4, 4, 4, 4, 3, 3, 3, 3, 2, 2, 2, 2, 1, 1, 1, 1, 1, 3, 3, 3, 2, 2, 2, 1, 1, 1, 4, 3, 3, 2, 2, 2, 1, 1, 1, 4, 4, 3, 3, 3, 2, 1, 1, 1, 4, 4, 4, 3, 3, 3, 3, 2, 2, 1, 1, 1, 1, 1, 1, 1, 1, 1, 1, 1, 1, 1, 1, 1, 1, 1, 1, 1, 1, 1, 1, 1, 1, 1, 1, 1, 2, 1, 1, 1, 1, 1, 1, 1, 1, 4, 4, 4, 4, 4, 4, 4, 4, 4, 2, 2, 2, 2, 2, 2, 2, 2, 2, 5, 4, 4, 4, 3, 3, 3, 3, 3, 3, 3, 3, 3, 3, 3, 3, 3, 3, 5, 4, 4, 4, 4, 4, 4, 4, 4, 5, 4, 4, 3, 2, 2, 2, 1, 1, 5, 4, 4, 4, 4, 4, 4, 4, 4, 3, 2, 2, 2, 2, 1, 1, 1, 1, 2, 2, 2, 2, 2, 2, 2, 2, 2, 4, 4, 4, 4, 4, 4, 4, 4, 4, 5, 5, 5, 5, 5, 5, 5, 5, 5, 5, 4, 4, 4, 4, 4, 4, 4, 4, 2, 2, 2, 2, 2, 2, 2, 2, 2, 5, 4, 4, 3, 3, 3, 3, 2, 2, 3, 3, 3, 3, 2, 2, 2, 2, 2, 2, 2, 2, 2, 2, 2, 2, 2, 2, 5, 5, 5, 5, 5, 5, 5, 5, 5, 3, 3, 3, 3, 3, 3, 3, 3, 3, 4, 4, 4, 4, 4, 3, 3, 3, 3, 1, 1, 1, 1, 1, 1, 1, 1, 1, 5, 4, 3, 3, 2, 2, 2, 1, 1, 5, 4, 4, 4, 4, 3, 3, 3, 3, 3, 2, 2, 2, 2, 2, 2, 2, 2, 4, 3, 3, 3, 2, 2, 2, 1, 1, 5, 5, 5, 5, 5, 5, 5, 5, 5, 5, 4, 4, 4, 3, 3, 3, 2, 2, 1, 1, 1, 1, 1, 1, 1, 1, 1, 4, 3, 3, 2, 2, 2, 2, 1, 1, 3, 3, 3, 3, 3, 2, 2, 2, 2, 3, 3, 3, 3, 2, 2, 2, 1, 1, 3, 3, 3, 3, 3, 3, 3, 3, 3, 3, 3, 3, 3, 3, 3, 3, 3, 3, 5, 4, 4, 3, 3, 3, 3, 2, 2, 1, 1, 1, 1, 1, 1, 1, 1, 1, 2, 2, 2, 2, 1, 1, 1, 1, 1, 2, 2, 2, 2, 2, 2, 2, 2, 2, 2, 2, 2, 2, 2, 2, 2, 2, 2, 3, 3, 3, 3, 2, 2, 2, 1, 1, 5, 5, 5, 5, 5, 5, 5, 5, 5
 |4, 4, 4, 4, 3, 3, 3, 2, 2, 4, 4, 4, 4, 4, 4, 4, 4, 4, 3, 3, 3, 3, 3, 3, 3, 3, 3, 2, 2, 2, 2, 2, 2, 2, 2, 2, 5, 4, 4, 4, 4, 3, 3, 3, 3, 4, 4, 4, 4, 4, 4, 4, 4, 4, 4, 4, 4, 4, 4, 4, 4, 4, 4, 5, 4, 4, 4, 4, 4, 4, 4, 4, 4, 3, 3, 3, 2, 2, 1, 1, 1, 4, 4, 4, 3, 3, 2, 1, 1, 1, 2, 2, 2, 2, 1, 1, 1, 1, 1, 3, 2, 2, 2, 2, 2, 2, 2, 2, 3, 3, 3, 3, 3, 3, 3, 3, 3, 3, 3, 3, 2, 2, 2, 1, 1, 1, 4, 3, 3, 3, 2, 2, 2, 1, 1, 3, 2, 2, 2, 2, 1, 1, 1, 1, 4, 3, 3, 3, 3, 2, 2, 2, 2, 5, 4, 4, 3, 3, 3, 2, 2, 2, 5, 4, 4, 4, 3, 3, 2, 2, 2, 1, 1, 1, 1, 1, 1, 1, 1, 1, 3, 2, 2, 2, 2, 2, 2, 2, 2, 3, 2, 2, 2, 2, 1, 1, 1, 1, 5, 4, 4, 4, 3, 3, 2, 2, 2, 5, 4, 4, 4, 4, 3, 3, 3, 3, 4, 4, 4, 3, 3, 3, 3, 2, 2, 2, 2, 2, 2, 2, 2, 2, 2, 2, 3, 3, 3, 3, 3, 3, 3, 3, 3, 4, 4, 4, 4, 4, 4, 4, 4, 4, 5, 4, 4, 4, 3, 3, 3, 3, 3, 4, 3, 3, 3, 3, 3, 3, 3, 3, 3, 2, 2, 2, 2, 2, 2, 2, 2, 4, 3, 3, 3, 3, 3, 3, 3, 3, 4, 4, 4, 4, 3, 3, 3, 3, 3, 3, 3, 3, 3, 2, 2, 2, 2, 2, 4, 3, 3, 3, 2, 2, 2, 2, 2, 2, 2, 2, 2, 1, 1, 1, 1, 1, 4, 4, 4, 3, 2, 2, 1, 1, 1, 2, 2, 2, 2, 2, 2, 2, 2, 2, 2, 1, 1, 1, 1, 1, 1, 1, 1, 5, 4, 3, 3, 2, 2, 1, 1, 1, 4, 4, 4, 4, 3, 3, 3, 3, 3, 5, 4, 4, 3, 3, 3, 3, 2, 2, 5, 4, 4, 4, 4, 4, 4, 4, 4, 1, 1, 1, 1, 1, 1, 1, 1, 1, 3, 3, 3, 3, 3, 3, 3, 3, 3, 1, 1, 1, 1, 1, 1, 1, 1, 1, 2, 2, 2, 2, 2, 2, 2, 2, 2, 2, 2, 2, 2, 2, 2, 2, 2, 2, 2, 1, 1, 1, 1, 1, 1, 1, 1, 1, 1, 1, 1, 1, 1, 1, 1, 1
 |5, 4, 4, 4, 4, 3, 3, 3, 3, 5, 4, 4, 4, 4, 4, 4, 4, 4, 2, 2, 2, 2, 2, 1, 1, 1, 1, 4, 4, 4, 4, 3, 3, 2, 2, 2, 3, 2, 2, 2, 1, 1, 1, 1, 1, 5, 4, 3, 3, 3, 2, 2, 1, 1, 4, 4, 4, 3, 2, 2, 1, 1, 1, 1, 1, 1, 1, 1, 1, 1, 1, 1, 3, 2, 2, 2, 1, 1, 1, 1, 1, 5, 4, 4, 4, 4, 4, 4, 4, 4, 5, 5, 5, 5, 5, 5, 5, 5, 5, 5, 4, 4, 4, 3, 3, 3, 3, 3, 5, 5, 5, 5, 5, 5, 5, 5, 5, 4, 3, 3, 3, 2, 2, 1, 1, 1, 3, 3, 3, 3, 3, 3, 3, 3, 3, 5, 5, 5, 5, 5, 5, 5, 5, 5, 3, 2, 2, 2, 2, 2, 2, 2, 2, 4, 3, 3, 3, 3, 3, 3, 3, 3, 4, 4, 4, 4, 3, 3, 2, 2, 2, 1, 1, 1, 1, 1, 1, 1, 1, 1, 3, 2, 2, 2, 1, 1, 1, 1, 1, 4, 3, 3, 3, 3, 3, 3, 3, 3, 5, 4, 4, 4, 3, 3, 3, 3, 3, 3, 3, 3, 3, 2, 2, 2, 2, 2, 4, 4, 4, 3, 3, 2, 2, 1, 1, 3, 3, 3, 3, 3, 3, 3, 3, 3, 4, 4, 4, 4, 3, 3, 3, 3, 3, 5, 4, 4, 3, 3, 3, 3, 2, 2, 2, 2, 2, 2, 2, 1, 1, 1, 1, 3, 2, 2, 2, 1, 1, 1, 1, 1, 4, 4, 4, 4, 4, 3, 3, 3, 3, 5, 4, 4, 3, 3, 3, 2, 2, 2, 5, 4, 4, 4, 4, 3, 3, 3, 3, 4, 4, 4, 4, 3, 3, 3, 3, 3, 4, 4, 4, 4, 4, 3, 3, 3, 3, 5, 4, 4, 4, 4, 3, 3, 3, 3, 3, 3, 3, 3, 3, 3, 3, 3, 3, 4, 4, 3, 3, 3, 2, 2, 1, 1, 2, 1, 1, 1, 1, 1, 1, 1, 1, 1, 1, 1, 1, 1, 1, 1, 1, 1, 1, 1, 1, 1, 1, 1, 1, 1, 1, 1, 1, 1, 1, 1, 1, 1, 1, 1, 5, 5, 5, 5, 5, 5, 5, 5, 5, 5, 4, 4, 4, 3, 3, 3, 3, 3, 5, 4, 4, 3, 3, 2, 2, 1, 1, 4, 4, 4, 4, 4, 3, 3, 3, 3, 4, 4, 4, 4, 4, 3, 3, 3, 3, 2, 2, 2, 2, 2, 1, 1, 1, 1, 4, 4, 4, 4, 3, 3, 3, 2, 2, 3, 3, 3, 3, 3, 3, 3, 3, 3
 |27, 26, 23, 22, 22, 20, 19, 17, 15, 21, 18, 16, 16, 13, 12, 10, 8, 7, 16, 14, 13, 13, 11, 10, 10, 9, 8, 27, 25, 21, 21, 19, 16, 15, 12, 11, 11, 11, 11, 11, 11, 11, 11, 11, 11, 13, 13, 13, 13, 12, 12, 12, 12, 12, 24, 23, 23, 22, 21, 20, 19, 18, 18, 26, 23, 23, 21, 20, 17, 17, 16, 14, 6, 6, 6, 6, 5, 5, 5, 4, 4, 29, 28, 28, 27, 27, 26, 26, 25, 25, 7, 7, 6, 6, 6, 5, 5, 4, 4, 24, 22, 20, 18, 14, 13, 11, 7, 7, 15, 15, 13, 13, 12, 11, 11, 10, 9, 27, 24, 21, 20, 16, 15, 13, 10, 9, 19, 19, 19, 19, 19, 19, 19, 19, 19, 27, 25, 21, 17, 16, 14, 8, 6, 3, 14, 13, 12, 12, 11, 11, 11, 10, 10, 16, 15, 14, 14, 12, 12, 11, 10, 10, 22, 20, 20, 19, 18, 17, 15, 14, 14, 15, 15, 15, 15, 14, 14, 13, 13, 13, 29, 25, 25, 24, 21, 20, 19, 15, 15, 16, 15, 13, 12, 11, 10, 9, 8, 7, 16, 16, 16, 15, 15, 15, 14, 14, 14, 21, 21, 20, 18, 17, 17, 16, 15, 14, 25, 24, 24, 24, 24, 24, 24, 24, 24, 24, 22, 20, 19, 16, 14, 12, 12, 9, 25, 23, 20, 20, 18, 16, 14, 12, 10, 25, 22, 20, 18, 16, 14, 13, 10, 7, 28, 27, 24, 21, 18, 15, 14, 12, 8, 20, 19, 18, 17, 14, 12, 12, 9, 8, 5, 4, 4, 3, 3, 2, 2, 2, 1, 23, 19, 17, 17, 13, 12, 9, 8, 7, 29, 29, 28, 27, 27, 26, 26, 25, 24, 19, 19, 18, 18, 17, 17, 17, 16, 16, 28, 27, 27, 27, 26, 26, 26, 26, 26, 26, 24, 24, 21, 20, 19, 18, 16, 16, 19, 19, 16, 13, 13, 10, 7, 4, 3, 24, 24, 21, 20, 19, 18, 15, 15, 14, 15, 12, 11, 9, 7, 7, 4, 2, 2, 17, 16, 16, 15, 14, 14, 14, 12, 12, 28, 27, 27, 27, 27, 26, 26, 26, 26, 29, 25, 25, 23, 21, 19, 17, 14, 13, 28, 27, 27, 25, 23, 23, 22, 20, 19, 12, 11, 11, 11, 11, 11, 11, 11, 11, 23, 22, 21, 20, 18, 18, 17, 15, 14, 21, 19, 17, 16, 15, 13, 10, 9, 6, 11, 10, 10, 10, 9, 9, 9, 9, 9, 10, 8, 8, 8, 7, 6, 5, 5, 4, 22, 21, 20, 19, 17, 17, 15, 13, 13, 17, 17, 15, 13, 11, 9, 9, 6, 6
 |6, 5, 5, 5, 4, 3, 3, 2, 1, 2, 2, 3, 2, 2, 2, 2, 2, 2, 14, 14, 13, 11, 9, 9, 8, 6, 5, 13, 12, 11, 9, 9, 9, 8, 7, 6, 14, 14, 13, 13, 13, 12, 12, 11, 10, 27, 25, 25, 22, 21, 20, 19, 18, 16, 28, 27, 25, 22, 20, 20, 16, 15, 13, 9, 8, 7, 7, 6, 6, 5, 5, 5, 14, 15, 14, 13, 14, 13, 13, 13, 12, 27, 25, 21, 20, 18, 18, 15, 13, 11, 8, 8, 7, 6, 6, 6, 5, 6, 5, 22, 20, 18, 16, 12, 11, 8, 6, 5, 18, 18, 17, 16, 16, 16, 15, 15, 14, 19, 17, 17, 16, 15, 15, 15, 14, 13, 21, 19, 17, 16, 14, 13, 11, 7, 6, 22, 21, 20, 19, 17, 16, 16, 14, 12, 29, 28, 28, 28, 27, 27, 26, 27, 26, 19, 17, 14, 13, 11, 10, 10, 8, 6, 25, 24, 23, 24, 23, 23, 22, 22, 21, 18, 17, 16, 15, 16, 15, 16, 15, 14, 8, 7, 6, 5, 5, 4, 4, 4, 3, 28, 27, 22, 21, 17, 15, 14, 12, 9, 16, 14, 13, 12, 12, 9, 8, 7, 6, 21, 21, 18, 17, 13, 11, 10, 8, 5, 13, 13, 12, 13, 12, 12, 11, 11, 10, 23, 21, 19, 18, 16, 14, 12, 11, 8, 19, 19, 19, 18, 19, 19, 19, 19, 19, 18, 17, 15, 15, 13, 12, 11, 9, 9, 19, 19, 17, 16, 15, 14, 12, 11, 10, 18, 16, 16, 15, 15, 15, 14, 13, 13, 28, 27, 24, 21, 17, 13, 11, 10, 7, 17, 15, 14, 11, 9, 8, 6, 6, 4, 23, 22, 22, 21, 20, 20, 19, 18, 17, 9, 9, 8, 7, 6, 5, 4, 5, 4, 15, 15, 13, 12, 12, 11, 9, 8, 7, 24, 22, 21, 18, 16, 15, 13, 10, 9, 29, 27, 26, 23, 23, 21, 20, 17, 17, 25, 24, 24, 24, 23, 22, 21, 21, 20, 28, 27, 27, 27, 27, 26, 27, 27, 26, 29, 27, 23, 23, 21, 17, 15, 15, 13, 27, 26, 25, 24, 22, 22, 20, 20, 18, 19, 17, 16, 14, 14, 12, 9, 8, 7, 15, 15, 13, 12, 12, 11, 9, 8, 8, 14, 14, 13, 14, 14, 13, 12, 13, 12, 28, 24, 23, 22, 20, 16, 15, 12, 12, 16, 15, 14, 13, 12, 11, 9, 8, 8, 26, 25, 24, 21, 21, 19, 16, 15, 14, 15, 14, 13, 10, 9, 8, 7, 5, 3, 22, 20, 18, 16, 13, 11, 7, 6, 4, 3, 3, 3, 3, 3, 2, 1, 2, 1|];